
List of user-set options:

                                    Name   Value                used
                           compl_inf_tol = 1                     yes
                         constr_viol_tol = 1                     yes
                            dual_inf_tol = 1000                  yes
                           linear_solver = ma97                  yes
                              ma86_small = 1e-30                  no
                                  ma86_u = 0.0001                 no
                              ma97_order = best                  yes
                              ma97_small = 1e-30                 yes
                            ma97_switch1 = at_start              yes
                            ma97_switch2 = od_hd_reuse           yes
                                  ma97_u = 1e-06                 yes
                               ma97_umax = 0.5                   yes
                                max_iter = 1000                  yes
                    max_refinement_steps = 20                    yes
                    min_refinement_steps = 5                     yes
                                 mu_init = 1e-06                 yes
           mu_superlinear_decrease_power = 1.25                  yes
                   nlp_scaling_min_value = 1e-08                 yes
                        option_file_name = Preset_Case_824_pf.opt  yes
                             output_file = ./tmp/Preset_Case_824_pf.output  yes
                      print_user_options = yes                   yes
        required_infeasibility_reduction = 1                      no
                                     tol = 1e-08                 yes
                   warm_start_bound_frac = 1e-20                 yes
                   warm_start_bound_push = 1e-20                 yes
                   warm_start_init_point = yes                   yes
              warm_start_mult_bound_push = 1e-20                 yes
                warm_start_mult_init_max = 1e+40                 yes
             warm_start_slack_bound_frac = 1e-20                 yes
             warm_start_slack_bound_push = 1e-20                 yes

******************************************************************************
This program contains Ipopt, a library for large-scale nonlinear optimization.
 Ipopt is released as open source code under the Eclipse Public License (EPL).
         For more information visit http://projects.coin-or.org/Ipopt
******************************************************************************

This is Ipopt version 3.12.10, running with linear solver ma97.

Number of nonzeros in equality constraint Jacobian...:   123442
Number of nonzeros in inequality constraint Jacobian.:      213
Number of nonzeros in Lagrangian Hessian.............:    49069

Total number of variables............................:    31591
                     variables with only lower bounds:    12912
                variables with lower and upper bounds:    15130
                     variables with only upper bounds:        0
Total number of equality constraints.................:    31483
Total number of inequality constraints...............:       25
        inequality constraints with only lower bounds:        4
   inequality constraints with lower and upper bounds:        0
        inequality constraints with only upper bounds:       21

iter    objective    inf_pr   inf_du lg(mu)  ||d||  lg(rg) alpha_du alpha_pr  ls
   0 -4.8788755e+00 4.05e-03 1.02e+00  -6.0 0.00e+00    -  0.00e+00 0.00e+00   0
   1 -4.8816484e+00 9.05e+00 1.08e+02  -6.0 2.69e+05    -  1.29e-04 1.73e-03h  1
   2 -4.8816027e+00 9.05e+00 1.08e+02  -6.0 1.71e+03    -  2.05e-03 4.23e-05h  1
   3 -4.8785298e+00 9.02e+00 9.84e+01  -6.0 2.55e+03    -  9.91e-02 2.73e-03h  2
   4r-4.8785298e+00 9.02e+00 9.99e+02   1.0 0.00e+00    -  0.00e+00 2.75e-07R  4
   5r-5.0448852e+00 9.02e+00 9.99e+02   1.0 1.17e+07    -  3.29e-09 3.85e-09f  1
   6 -5.0442928e+00 9.02e+00 2.39e+02  -6.0 5.16e+02    -  1.76e-06 4.22e-04h  1
   7 -5.0422692e+00 9.01e+00 2.38e+02  -6.0 5.17e+02    -  4.30e-04 1.45e-03h  1
   8 -5.0406052e+00 9.00e+00 2.37e+02  -6.0 5.19e+02    -  3.21e-04 1.20e-03h  1
   9 -5.0332231e+00 8.96e+00 2.36e+02  -6.0 3.73e+02    -  5.91e-03 4.12e-03h  1
iter    objective    inf_pr   inf_du lg(mu)  ||d||  lg(rg) alpha_du alpha_pr  ls
  10 -4.9643379e+00 8.67e+00 7.79e+02  -6.0 3.56e+02    -  4.54e-03 3.26e-02h  1
  11 -4.9272450e+00 8.51e+00 9.63e+02  -6.0 3.47e+02    -  4.84e-03 1.88e-02h  1
  12 -4.9248256e+00 8.49e+00 9.63e+02  -6.0 3.41e+02    -  4.57e-02 1.26e-03h  1
  13 -4.8879706e+00 8.33e+00 1.13e+03  -6.0 3.38e+02    -  6.38e-02 1.90e-02h  4
  14 -4.8807899e+00 8.30e+00 1.13e+03  -6.0 3.29e+02    -  7.24e-02 3.72e-03h  4
  15 -4.8768454e+00 8.29e+00 1.13e+03  -6.0 3.24e+02    -  6.07e-03 2.00e-03h  7
  16 -4.8758751e+00 8.28e+00 1.13e+03  -6.0 3.23e+02    -  9.39e-03 4.93e-04h  9
  17 -4.8756283e+00 8.28e+00 1.13e+03  -6.0 3.22e+02    -  1.13e-02 1.25e-04h 11
  18 -4.6371578e+00 7.30e+00 6.07e+03  -6.0 3.22e+02    -  9.52e-03 1.21e-01h  1
  19 -4.5362147e+00 6.85e+00 5.96e+03  -6.0 2.84e+02    -  1.78e-01 6.11e-02h  1
iter    objective    inf_pr   inf_du lg(mu)  ||d||  lg(rg) alpha_du alpha_pr  ls
  20 -4.4043538e+00 6.27e+00 4.84e+03  -6.0 2.66e+02    -  2.96e-01 8.52e-02h  1
  21 -4.1252819e+00 4.89e+00 2.87e+03  -6.0 2.55e+02    -  3.82e-01 2.23e-01h  1
  22 -4.0351364e+00 2.88e+00 1.98e+04  -6.0 2.30e+02    -  7.59e-02 4.15e-01h  1
  23 -4.1594159e+00 1.43e+00 3.09e+09  -6.0 8.99e+01    -  2.37e-01 5.03e-01h  1
  24 -4.1594442e+00 1.43e+00 3.09e+09  -6.0 1.56e+02    -  6.76e-04 2.50e-05h  1
  25 -4.1746249e+00 1.41e+00 2.94e+09  -6.0 1.85e+02    -  4.05e-03 1.22e-02f  1
  26 -4.1799531e+00 1.41e+00 2.91e+09  -6.0 1.59e+02    -  2.17e-02 4.86e-03f  1
  27 -4.7523645e+00 2.01e+00 2.54e+09  -6.0 2.86e+01    -  1.20e-02 1.00e+00h  1
  28 -4.7555190e+00 1.98e+00 2.51e+09  -6.0 8.12e+01  -2.0 9.91e-03 1.55e-02h  1
  29 -4.7303029e+00 1.02e+00 1.34e+09  -6.0 5.82e+00  -2.5 6.09e-06 4.83e-01h  1
iter    objective    inf_pr   inf_du lg(mu)  ||d||  lg(rg) alpha_du alpha_pr  ls
  30 -4.7460958e+00 1.01e+00 1.31e+09  -6.0 2.83e+02    -  8.87e-03 2.57e-02h  1
  31 -4.8373004e+00 5.30e-01 5.16e+08  -6.0 1.63e+01    -  8.50e-05 6.05e-01h  1
  32 -4.8761058e+00 4.00e-01 3.73e+08  -6.0 1.30e+01    -  8.64e-01 2.78e-01f  1
  33 -4.8849779e+00 3.94e-01 3.67e+08  -6.0 1.09e+02    -  6.17e-01 1.60e-02h  1
  34 -5.0615577e+00 3.41e-01 3.17e+08  -6.0 5.82e+02    -  2.56e-01 1.36e-01h  1
  35 -5.0686081e+00 2.67e-01 2.01e+08  -6.0 8.42e+01    -  5.46e-01 3.42e-01h  1
  36 -5.1173763e+00 3.43e-01 7.54e+07  -6.0 1.54e+02    -  6.25e-01 5.39e-01h  1
  37 -5.1912997e+00 1.03e+00 3.27e+07  -6.0 2.40e+02    -  8.63e-01 1.00e+00h  1
  38 -5.2100099e+00 8.54e-01 2.06e+07  -6.0 4.93e+02    -  4.48e-01 3.55e-01h  1
  39 -5.2104576e+00 8.47e-01 2.05e+07  -6.0 7.21e+02    -  3.86e-01 8.27e-03h  1
iter    objective    inf_pr   inf_du lg(mu)  ||d||  lg(rg) alpha_du alpha_pr  ls
  40 -5.2215793e+00 2.77e+00 1.28e+07  -6.0 9.71e+02    -  4.17e-01 3.74e-01h  1
  41 -5.2284218e+00 1.96e+00 9.77e+06  -6.0 1.20e+03    -  6.69e-02 2.37e-01h  1
  42 -5.2423691e+00 3.50e+00 3.61e+06  -6.0 1.12e+03    -  4.64e-01 6.30e-01h  1
  43 -5.2421697e+00 3.20e+00 3.30e+06  -6.0 2.55e+01  -3.0 1.33e-03 8.45e-02h  1
  44 -5.2358242e+00 6.50e-04 2.71e+02  -6.0 1.95e+00  -3.4 5.70e-01 1.00e+00h  1
  45 -5.2358338e+00 6.34e-04 3.34e+02  -6.0 7.84e-01  -3.9 9.93e-01 2.43e-02h  1
  46 -5.2361965e+00 1.76e-04 9.23e-01  -6.0 2.07e+00  -4.4 1.00e+00 1.00e+00f  1
  47 -5.2372912e+00 1.75e-03 5.07e+00  -6.0 6.22e+00  -4.9 1.00e+00 1.00e+00h  1
  48 -5.2402304e+00 1.22e-02 3.23e+01  -6.0 1.73e+01  -5.3 1.00e+00 1.00e+00h  1
  49 -5.2457245e+00 4.78e-02 8.14e+01  -6.0 4.52e+01  -5.8 1.00e+00 7.29e-01h  1
iter    objective    inf_pr   inf_du lg(mu)  ||d||  lg(rg) alpha_du alpha_pr  ls
  50 -5.2532628e+00 1.15e-01 1.10e+02  -6.0 1.11e+02  -6.3 8.28e-01 4.16e-01h  1
  51 -5.2532831e+00 1.15e-01 8.16e+03  -6.0 4.91e+03    -  2.60e-02 3.75e-04h  1
  52 -5.2537210e+00 1.33e+00 1.79e+04  -6.0 3.34e+04    -  4.13e-02 7.05e-03f  1
  53 -5.2575835e+00 2.34e+01 5.56e+03  -6.0 1.33e+04    -  3.52e-02 7.27e-02h  1
  54 -5.2603897e+00 2.30e+01 7.37e+03  -6.0 3.47e+03    -  7.73e-02 7.13e-02h  1
  55 -5.2630902e+00 2.19e+01 2.10e+05  -6.0 2.60e+03    -  5.35e-01 7.29e-02h  1
  56 -5.2784125e+00 4.32e+01 2.60e+04  -6.0 2.98e+03    -  1.86e-02 4.50e-01h  1
  57 -5.2816195e+00 4.11e+01 5.27e+04  -6.0 3.21e+03    -  1.70e-01 1.15e-01h  1
  58 -5.2846798e+00 3.78e+01 4.83e+03  -6.0 1.83e+03    -  6.70e-02 9.40e-02h  1
  59r-5.2846798e+00 3.78e+01 1.00e+03   1.5 0.00e+00  -6.8 0.00e+00 1.31e-07R  2
iter    objective    inf_pr   inf_du lg(mu)  ||d||  lg(rg) alpha_du alpha_pr  ls
  60r-5.2899312e+00 3.78e+01 1.00e+03   1.5 1.51e+05    -  7.73e-08 3.74e-08f  1
  61 -5.2896967e+00 3.62e+01 3.76e+04  -6.0 7.28e+02    -  1.09e-06 4.09e-02h  1
  62 -5.2895440e+00 3.55e+01 3.68e+04  -6.0 9.01e+01    -  1.78e-02 2.06e-02h  1
  63 -5.2893577e+00 3.46e+01 3.59e+04  -6.0 1.69e+01    -  1.09e-01 2.48e-02h  1
  64 -5.2884446e+00 3.03e+01 3.15e+04  -6.0 1.65e+01    -  3.53e-02 1.23e-01h  1
  65 -5.2876246e+00 2.73e+01 2.83e+04  -6.0 1.45e+01    -  3.53e-01 1.00e-01h  1
  66 -5.2809515e+00 1.13e+00 1.17e+03  -6.0 1.29e+01    -  1.42e-01 9.59e-01h  1
  67 -5.2818321e+00 1.94e-05 1.97e+02  -6.0 6.89e-01    -  1.77e-01 1.00e+00h  1
  68 -5.2825431e+00 2.77e-05 2.05e+01  -6.0 6.22e-01    -  8.69e-01 1.00e+00h  1
  69 -5.2825486e+00 2.76e-05 3.09e+01  -6.0 2.68e+00    -  9.15e-01 6.00e-03h  1
iter    objective    inf_pr   inf_du lg(mu)  ||d||  lg(rg) alpha_du alpha_pr  ls
  70 -5.2881844e+00 2.47e-02 1.49e+01  -6.0 2.48e+01    -  8.26e-01 1.00e+00f  1
  71 -5.2963461e+00 1.64e-01 3.05e+01  -6.0 6.38e+01    -  9.44e-01 8.05e-01h  1
  72 -5.2985739e+00 5.08e-01 2.26e+02  -6.0 3.16e+02  -7.2 6.05e-01 2.04e-01h  1
  73 -5.3065332e+00 3.60e+00 3.30e+01  -6.0 4.48e+02    -  7.10e-01 1.00e+00h  1
  74 -5.3088869e+00 3.06e+00 4.65e+01  -6.0 5.99e+02    -  2.33e-01 1.85e-01h  1
  75 -5.3095633e+00 2.94e+00 1.52e+02  -6.0 8.44e+02    -  1.52e-01 4.28e-02h  1
  76 -5.3099779e+00 2.91e+00 1.80e+04  -6.0 2.09e+03    -  1.10e-03 2.44e-02h  1
  77 -5.3109273e+00 2.64e+00 1.06e+04  -6.0 3.38e+02    -  8.04e-01 9.98e-02h  1
  78 -5.3208936e+00 2.63e+01 2.71e+03  -6.0 1.05e+03    -  1.23e-01 1.00e+00h  1
  79 -5.3247913e+00 1.95e+01 3.75e+03  -6.0 5.98e+02    -  4.97e-01 2.84e-01h  1
iter    objective    inf_pr   inf_du lg(mu)  ||d||  lg(rg) alpha_du alpha_pr  ls
  80 -5.3360281e+00 1.22e+01 4.85e+03  -6.0 7.83e+02    -  9.59e-01 8.25e-01h  1
  81 -5.3422625e+00 7.93e+00 1.34e+04  -6.0 4.61e+02    -  5.13e-01 4.08e-01h  1
  82 -5.3532550e+00 2.96e+00 4.90e+04  -6.0 2.69e+02    -  1.00e+00 7.20e-01h  1
  83 -5.3620355e+00 2.34e+00 3.14e+05  -6.0 5.09e+02    -  2.38e-01 4.92e-01h  1
  84 -5.3620757e+00 2.34e+00 3.24e+05  -6.0 4.90e+02  -6.8 2.01e-01 1.06e-03h  1
  85 -5.3790708e+00 4.97e+00 1.95e+05  -6.0 6.08e+02    -  5.97e-01 7.54e-01f  1
  86 -5.3866946e+00 7.43e+00 1.24e+08  -6.0 6.70e+02    -  8.11e-03 1.00e+00h  1
  87 -5.3883561e+00 6.71e+00 1.12e+08  -6.0 6.51e+02  -7.3 1.96e-01 9.72e-02h  1
  88 -5.3872389e+00 4.97e+00 4.86e+07  -6.0 6.27e+02    -  2.59e-01 5.66e-01h  1
  89 -5.3818890e+00 2.15e+00 1.98e+07  -6.0 1.93e+02    -  4.68e-01 5.96e-01h  1
iter    objective    inf_pr   inf_du lg(mu)  ||d||  lg(rg) alpha_du alpha_pr  ls
  90 -5.3752430e+00 9.95e-01 7.55e+06  -6.0 2.12e+02    -  7.71e-01 6.23e-01h  1
  91 -5.3835667e+00 1.56e+00 6.49e+06  -6.0 1.20e+03    -  2.76e-01 1.41e-01h  1
  92 -5.3785238e+00 1.16e+00 3.48e+06  -6.0 2.21e+02    -  6.67e-01 4.66e-01h  2
  93 -5.3821446e+00 5.47e-01 5.30e+04  -6.0 1.32e+02    -  2.07e-01 1.00e+00h  1
  94 -5.3824281e+00 1.19e-01 2.62e+04  -6.0 6.13e+01    -  8.26e-01 1.00e+00h  1
  95 -5.3826441e+00 6.76e-02 6.42e+01  -6.0 4.63e+01    -  1.00e+00 1.00e+00h  1
  96 -5.3824037e+00 1.11e-03 1.92e-02  -6.0 8.27e+00    -  1.00e+00 1.00e+00h  1
  97 -5.3824007e+00 3.11e-08 1.50e-07  -6.0 3.77e-02    -  1.00e+00 1.00e+00h  1
  98 -5.3827301e+00 8.88e+00 1.14e+01  -7.5 1.04e+03    -  6.38e-01 5.98e-01h  1
  99 -5.3827426e+00 7.56e+00 4.16e+01  -7.5 5.55e+02    -  4.81e-01 1.75e-01h  1
iter    objective    inf_pr   inf_du lg(mu)  ||d||  lg(rg) alpha_du alpha_pr  ls
 100 -5.3827566e+00 5.71e+00 9.03e+00  -7.5 5.29e+02    -  9.62e-01 8.89e-01h  1
 101 -5.3827242e+00 3.31e-02 4.73e-02  -7.5 3.19e+01    -  1.00e+00 1.00e+00h  1
 102 -5.3827229e+00 2.76e-04 1.00e-04  -7.5 3.46e+00    -  1.00e+00 1.00e+00h  1
 103 -5.3827229e+00 2.98e-09 5.43e-10  -7.5 1.20e-02    -  1.00e+00 1.00e+00h  1
 104 -5.3827250e+00 4.11e-02 9.27e-01  -9.0 5.07e+01    -  9.27e-01 8.26e-01h  1
 105 -5.3827252e+00 2.25e-03 7.75e-04  -9.0 9.74e+00    -  1.00e+00 1.00e+00h  1
 106 -5.3827252e+00 9.89e-09 2.50e-09  -9.0 2.17e-02    -  1.00e+00 1.00e+00h  1

Number of Iterations....: 106

                                   (scaled)                 (unscaled)
Objective...............:  -4.2052540318052927e+00   -5.3827251607107742e+00
Dual infeasibility......:   2.4991158569659389e-09    3.1988682969164018e-09
Constraint violation....:   8.1291189757313607e-09    9.8916643764823675e-09
Complementarity.........:   1.0493799015456433e-09    1.3432062739784235e-09
Overall NLP error.......:   8.1291189757313607e-09    9.8916643764823675e-09


Number of objective function evaluations             = 145
Number of objective gradient evaluations             = 107
Number of equality constraint evaluations            = 145
Number of inequality constraint evaluations          = 145
Number of equality constraint Jacobian evaluations   = 109
Number of inequality constraint Jacobian evaluations = 109
Number of Lagrangian Hessian evaluations             = 106
Total CPU secs in IPOPT (w/o function evaluations)   =    211.219
Total CPU secs in NLP function evaluations           =      4.329

EXIT: Optimal Solution Found.
